
Gurobi 11.0.3 (linux64) logging started Sat Nov 23 00:53:51 2024

Set parameter LogFile to value "/home/yihong/Coding/OR_SUC/SUC_results_bigM100000_thread4/case24_ieee_rts_theta0.1_epsilon0.025_gurobi_seed850000_num_gen100_N_WDR100_load_scaling_factor1_proposed_T24quadra_cost.txt"
Set parameter TimeLimit to value 3600
Gurobi Optimizer version 11.0.3 build v11.0.3rc0 (linux64 - "Ubuntu 20.04.6 LTS")

CPU model: AMD EPYC 7532 32-Core Processor, instruction set [SSE2|AVX|AVX2]
Thread count: 64 physical cores, 128 logical processors, using up to 4 threads

Optimize a model with 51942 rows, 29861 columns and 708794 nonzeros
Model fingerprint: 0xf2bca722
Model has 2400 quadratic constraints
Variable types: 27461 continuous, 2400 integer (2400 binary)
Coefficient statistics:
  Matrix range     [3e-04, 3e+03]
  QMatrix range    [2e-03, 8e-03]
  QLMatrix range   [6e-02, 6e+01]
  Objective range  [1e+00, 1e+00]
  Bounds range     [1e+00, 1e+00]
  RHS range        [1e+00, 9e+03]
Presolve removed 42128 rows and 12936 columns
Presolve time: 0.22s
Presolved: 9814 rows, 16925 columns, 61229 nonzeros
Presolved model has 2400 quadratic constraint(s)
Variable types: 14525 continuous, 2400 integer (2400 binary)

Root relaxation: objective 3.797755e+04, 7701 iterations, 0.18 seconds (0.26 work units)

    Nodes    |    Current Node    |     Objective Bounds      |     Work
 Expl Unexpl |  Obj  Depth IntInf | Incumbent    BestBd   Gap | It/Node Time

     0     0 37977.5501    0   24          - 37977.5501      -     -    0s
     0     0 326752.950    0  733          - 326752.950      -     -    0s
     0     0 349970.397    0  700          - 349970.397      -     -    1s
     0     0 617662.817    0  649          - 617662.817      -     -    1s
     0     0 617700.729    0  503          - 617700.729      -     -    1s
     0     0 618015.162    0  392          - 618015.162      -     -    1s
     0     0 618016.659    0  392          - 618016.659      -     -    1s
     0     0 618017.115    0  392          - 618017.115      -     -    1s
     0     2 618017.115    0  392          - 618017.115      -     -    3s
H  663   649                    619273.44480 618034.423  0.20%  24.1    5s
*  663   649             186    619273.44480 618034.423  0.20%  24.1    5s
H  811   249                    618201.13896 618064.302  0.02%  20.5    5s
*  811   249             201    618201.13896 618064.302  0.02%  20.6    5s

Cutting planes:
  Gomory: 8
  Implied bound: 420
  MIR: 39
  Flow cover: 124

Explored 831 nodes (39195 simplex iterations) in 6.44 seconds (7.82 work units)
Thread count was 4 (of 128 available processors)

Solution count 3: 618201 618201 619273 

Optimal solution found (tolerance 1.00e-03)
Warning: max constraint violation (5.6407e-07) exceeds tolerance
Best objective 6.182011389624e+05, best bound 6.180643022795e+05, gap 0.0221%
